
<<< setup

Version identifier: 22.1.1.0 | 2022-11-27 | 9160aff4d
Tried aggregator 1 time.
LP Presolve eliminated 1706 rows and 1680 columns.
Aggregator did 3 substitutions.
Reduced LP has 2 rows, 4 columns, and 5 nonzeros.
Presolve time = 0.00 sec. (2.88 ticks)

Iteration log . . .
Iteration:     1   Dual infeasibility =             4.211133
Iteration:     3   Dual objective     =           275.039837
main returns 0

<<< main


<<< done

